Cd  H  C  N                             
   1.00000000000000     
     7.6777061240000002    0.0463759880000000    2.1793358370000000
     0.4645443540000000    8.5219537459999994    2.2516970480000000
     0.0476230000000000   -0.0993633220000000   10.1069265040000005
   Cd   H    C    N 
     2    16    24    18
Direct
  0.2071139018709474  0.8738109416983448  0.4587360689270383
  0.7928833139727800  0.1261847734136481  0.5412615888061225
  0.7050851544325312  0.9604453733248306  0.8700400304135556
  0.2949107780965718  0.0395492621164237  0.1299650705185798
  0.8599840967462455  0.2222562287266499  0.1204661124334407
  0.1400222187567834  0.7777394717073562  0.8795345335312774
  0.9833977147053901  0.4125709528637813  0.8983860046940251
  0.0166033883084395  0.5874247774274082  0.1016147691567753
  0.4974293887396257  0.7797439351544142  0.6521574275969044
  0.5025700344814368  0.2202587618254768  0.3478362198500591
  0.2504224583653496  0.2681938331266593  0.7662689638325304
  0.7495807973875444  0.7318089715175731  0.2337357062728529
  0.6127912256246688  0.5612293846050136  0.8168975572903818
  0.3872104264888634  0.4387792042175960  0.1830992440184289
  0.7104031989041104  0.9923562717905483  0.1070807393054096
  0.2895952114670308  0.0076406732805196  0.8929223233575669
  0.4860612126709540  0.2962479587682409  0.8753025682451394
  0.5139418556004358  0.7037583240431147  0.1246983991328747
  0.7689777248247935  0.0572311251712634  0.8806378603139322
  0.2310178815755606  0.9427693303364890  0.1193630460411015
  0.9734184058620201  0.3952720929557643  0.6284384650794124
  0.0265812536748200  0.6047259895892481  0.3715620959725854
  0.8534908784888273  0.2033664629289262  0.0196357495662838
  0.1465088503716316  0.7966304486664058  0.9803650574105731
  0.9259237786805983  0.3088329217883228  0.8950033370575028
  0.0740786984866020  0.6911616271987313  0.1049974036672339
  0.2444781623209096  0.5103684043256678  0.6568203446864160
  0.7555212755855010  0.4896332141896806  0.3431814552261940
  0.1092345154195371  0.5003116704124153  0.5838046801098287
  0.8907678026110659  0.4996852551559314  0.4161985337179814
  0.4433564266934980  0.6652434526519286  0.6814891480094332
  0.5566441978847720  0.3347604627264005  0.3185089160497441
  0.3055814226890732  0.3805887221201019  0.7457593512062530
  0.6944164887571560  0.6194164427200377  0.2542439666178922
  0.9170635210187115  0.2822690305284894  0.7662117912889599
  0.0829375888248975  0.7177266882020632  0.2337879942442385
  0.5084526940725382  0.5418655436149393  0.7735560137222350
  0.4915477088753022  0.4581419077337330  0.2264432891975545
  0.7732079907613425  0.0752992800817793  0.0127337375562604
  0.2267892045930253  0.9246964697121385  0.9872668851296993
  0.4380410926919254  0.3967129631880013  0.8056706395640063
  0.5619593102559151  0.6032944881606639  0.1943286633557832
  0.3144263885288368  0.6511337898745495  0.6246155315731841
  0.6855730630371397  0.3488678055195109  0.3753842917042292
  0.1271370957351650  0.6008648933800131  0.4586092381840530
  0.8728639311252593  0.3991320194215078  0.5413922780594831
  0.8387913130518143  0.1578329417159878  0.7606912011995064
  0.1612082010080016  0.8421674942890363  0.2393098563203679
  0.4741064155432184  0.9441451272578831  0.3162963637718832
  0.5258916686991810  0.0558576378796829  0.6837025043139846
  0.6008644396927352  0.9483196032911536  0.3559812313549102
  0.3991220182140367  0.0516820031623340  0.6440134758909082
  0.8577231071048601  0.6800163306583329  0.8337631155023431
  0.1422779754196100  0.3199794343147815  0.1662406233012561
  0.9321578306930149  0.8643517785013728  0.6151728404559762
  0.0678393510017870  0.1356439944138259  0.3848297588651803
  0.8953295897108902  0.7711541865448197  0.7256410275584955
  0.1046734980240771  0.2288531169278727  0.2743468457658693
  0.7323937270059915  0.9529494690341949  0.3859248997289839
  0.2676071192027081  0.0470509103738053  0.6140719254695810
 
  0.00000000E+00  0.00000000E+00  0.00000000E+00
  0.00000000E+00  0.00000000E+00  0.00000000E+00
  0.00000000E+00  0.00000000E+00  0.00000000E+00
  0.00000000E+00  0.00000000E+00  0.00000000E+00
  0.00000000E+00  0.00000000E+00  0.00000000E+00
  0.00000000E+00  0.00000000E+00  0.00000000E+00
  0.00000000E+00  0.00000000E+00  0.00000000E+00
  0.00000000E+00  0.00000000E+00  0.00000000E+00
  0.00000000E+00  0.00000000E+00  0.00000000E+00
  0.00000000E+00  0.00000000E+00  0.00000000E+00
  0.00000000E+00  0.00000000E+00  0.00000000E+00
  0.00000000E+00  0.00000000E+00  0.00000000E+00
  0.00000000E+00  0.00000000E+00  0.00000000E+00
  0.00000000E+00  0.00000000E+00  0.00000000E+00
  0.00000000E+00  0.00000000E+00  0.00000000E+00
  0.00000000E+00  0.00000000E+00  0.00000000E+00
  0.00000000E+00  0.00000000E+00  0.00000000E+00
  0.00000000E+00  0.00000000E+00  0.00000000E+00
  0.00000000E+00  0.00000000E+00  0.00000000E+00
  0.00000000E+00  0.00000000E+00  0.00000000E+00
  0.00000000E+00  0.00000000E+00  0.00000000E+00
  0.00000000E+00  0.00000000E+00  0.00000000E+00
  0.00000000E+00  0.00000000E+00  0.00000000E+00
  0.00000000E+00  0.00000000E+00  0.00000000E+00
  0.00000000E+00  0.00000000E+00  0.00000000E+00
  0.00000000E+00  0.00000000E+00  0.00000000E+00
  0.00000000E+00  0.00000000E+00  0.00000000E+00
  0.00000000E+00  0.00000000E+00  0.00000000E+00
  0.00000000E+00  0.00000000E+00  0.00000000E+00
  0.00000000E+00  0.00000000E+00  0.00000000E+00
  0.00000000E+00  0.00000000E+00  0.00000000E+00
  0.00000000E+00  0.00000000E+00  0.00000000E+00
  0.00000000E+00  0.00000000E+00  0.00000000E+00
  0.00000000E+00  0.00000000E+00  0.00000000E+00
  0.00000000E+00  0.00000000E+00  0.00000000E+00
  0.00000000E+00  0.00000000E+00  0.00000000E+00
  0.00000000E+00  0.00000000E+00  0.00000000E+00
  0.00000000E+00  0.00000000E+00  0.00000000E+00
  0.00000000E+00  0.00000000E+00  0.00000000E+00
  0.00000000E+00  0.00000000E+00  0.00000000E+00
  0.00000000E+00  0.00000000E+00  0.00000000E+00
  0.00000000E+00  0.00000000E+00  0.00000000E+00
  0.00000000E+00  0.00000000E+00  0.00000000E+00
  0.00000000E+00  0.00000000E+00  0.00000000E+00
  0.00000000E+00  0.00000000E+00  0.00000000E+00
  0.00000000E+00  0.00000000E+00  0.00000000E+00
  0.00000000E+00  0.00000000E+00  0.00000000E+00
  0.00000000E+00  0.00000000E+00  0.00000000E+00
  0.00000000E+00  0.00000000E+00  0.00000000E+00
  0.00000000E+00  0.00000000E+00  0.00000000E+00
  0.00000000E+00  0.00000000E+00  0.00000000E+00
  0.00000000E+00  0.00000000E+00  0.00000000E+00
  0.00000000E+00  0.00000000E+00  0.00000000E+00
  0.00000000E+00  0.00000000E+00  0.00000000E+00
  0.00000000E+00  0.00000000E+00  0.00000000E+00
  0.00000000E+00  0.00000000E+00  0.00000000E+00
  0.00000000E+00  0.00000000E+00  0.00000000E+00
  0.00000000E+00  0.00000000E+00  0.00000000E+00
  0.00000000E+00  0.00000000E+00  0.00000000E+00
  0.00000000E+00  0.00000000E+00  0.00000000E+00
