Cd  H  C  N 
 1.0000000000000000
     7.6777061240000002    0.0463759880000000    2.1793358370000000
     0.4645443540000000    8.5219537459999994    2.2516970480000000
     0.0476230000000000   -0.0993633220000000   10.1069265040000005
   2  16  24  18
Cartesian
  2.0179299999999998  7.4105999999999996  7.0553400000000002
  6.1719200000000001  1.0583300000000000  7.4825799999999996
  5.9010400000000001  8.1311199999999992 12.4926800000000000
  2.2888000000000002  0.3378000000000000  2.0453100000000002
  6.7116899999999999  1.9219700000000000  3.5921900000000000
  1.4782299999999999  6.5469600000000003 10.9457799999999992
  7.7846799999999998  3.4722499999999998 12.1520600000000005
  0.4052000000000000  4.9966799999999996  2.3858999999999999
  4.2123999999999997  6.6032099999999998  9.4311199999999999
  3.9774699999999998  1.8657800000000000  5.1067799999999997
  2.0837500000000002  2.2210100000000002  8.8942700000000006
  6.1061500000000004  6.2479800000000001  5.6437499999999998
  5.0044500000000003  4.7300199999999997 10.8555200000000003
  3.1854399999999998  3.7390200000000000  3.6824300000000001
  5.9203599999999996  8.4791200000000000  4.8649500000000003
  2.2694999999999999 -0.0101800000000000  9.6730300000000007
  3.9111400000000001  2.4601799999999998 10.5729699999999998
  4.2787600000000001  6.0088400000000002  3.9650200000000000
  5.9725099999999998  0.4358800000000000 10.7052700000000005
  2.2173300000000000  8.0330899999999996  3.8326899999999999
  7.6871700000000001  3.3511899999999999  9.3630200000000006
  0.5027000000000000  5.1177599999999996  5.1749400000000003
  6.6482599999999996  1.7707100000000000  2.5164200000000001
  1.5416099999999999  6.6982299999999997 12.0215399999999999
  7.2950600000000003  2.5858699999999999 11.7590299999999992
  0.8948300000000000  5.8830499999999999  2.7789299999999999
  2.1454000000000000  4.2954100000000004  8.3204300000000000
  6.0444699999999996  4.1735699999999998  6.2175500000000001
  1.0988899999999999  4.2106899999999996  7.2650800000000002
  7.0910000000000002  4.2582500000000003  7.2729100000000004
  3.7454499999999999  5.6220200000000000  9.3519100000000002
  4.4444299999999997  2.8469799999999998  5.1860400000000002
  2.5584799999999999  3.1834300000000000  9.0602699999999992
  5.6313800000000001  5.2855800000000004  5.4777300000000002
  7.2085600000000003  2.3718800000000000 10.3782200000000007
  0.9813200000000000  6.0970500000000003  4.1597299999999997
  4.1923100000000000  4.5644700000000000 10.1464800000000004
  3.9975700000000001  3.9045600000000000  4.3914900000000001
  5.9720500000000003  0.6762899999999999  1.9833300000000000
  2.2178000000000000  7.7926399999999996 12.5546199999999999
  3.5858099999999999  3.3210299999999999  9.9907699999999995
  4.6040700000000001  5.1479999999999997  4.5472000000000001
  2.7463000000000002  5.5014500000000002  8.4643400000000000
  5.4435700000000002  2.9675300000000000  6.0736200000000000
  1.2770900000000001  5.0808700000000000  6.2651700000000003
  6.9127900000000002  3.3880699999999999  8.2728000000000002
  6.5495400000000004  1.3083600000000000  9.8716500000000007
  1.6403300000000001  7.1606100000000001  4.6663199999999998
  4.0937099999999997  8.0365199999999994  6.3559500000000000
  4.0961499999999997  0.4324700000000000  8.1820000000000004
  5.0707500000000003  8.0740300000000005  7.0426900000000003
  3.1190199999999999  0.3949500000000000  7.4951900000000000
  6.9409500000000000  5.7519999999999998 11.8272399999999998
  1.2489300000000001  2.7169300000000001  2.7107500000000000
  7.5876599999999996  7.3480699999999999 10.1952499999999997
  0.6021900000000000  1.1208600000000000  4.3427199999999999
  7.2668699999999999  6.5411599999999996 11.0216300000000000
  0.9230300000000000  1.9278700000000000  3.5162300000000002
  6.0841700000000003  8.1166099999999997  7.6424000000000003
  2.1057100000000002  0.3523600000000000  6.8955299999999999
