Li  H  C  O                             
   1.00000000000000     
     5.0052363800000004    0.0001581460000000    0.0000039800000000
     0.0001822460000000    6.5278851490000003   -0.6780755130000000
    -0.0000197960000000    0.0105129220000000    8.8599777119999992
   Li   H    C    O 
     4     8     8    12
Direct
  0.8385820695760557  0.1301365300325799  0.2626348657348885
  0.3386245989622623  0.8699067008265402  0.2373664080272775
  0.1613242610728420  0.8699023616816817  0.7373572553391838
  0.6614855183947554  0.1301291152798356  0.7626299922555901
  0.6579379449353411  0.3069190902416352  0.0440770522981282
  0.1577253597520070  0.6931084345110960  0.4558960937427727
  0.3422700692750666  0.6931320677644308  0.9559035920282710
  0.8421190359586035  0.3069243409870452  0.5440899159152650
  0.1855636449964635  0.4536596626428135  0.1305516568471745
  0.6856315036544771  0.5463464594804464  0.3695101199340982
  0.8143846439928950  0.5463254803963125  0.8695221296888320
  0.3143847142635749  0.4536371447599876  0.6305669348164429
  0.1690757043850084  0.2440637716104703  0.9267633916389002
  0.6692018784330926  0.7558984423076609  0.5731948460481888
  0.8308585991488187  0.7559108461466977  0.0731876929089452
  0.3308782732098337  0.2440546972071402  0.4267737820595201
  0.0385390198552713  0.4056009833212997  0.0415935517483845
  0.5384782135591308  0.5944139543504932  0.4583708374781637
  0.9615131582373664  0.5944302827048134  0.9583754122276105
  0.4614441003508958  0.4056249369766149  0.5416212835591026
  0.8132227616545933  0.3300153428315866  0.1159655384764946
  0.3131051943391157  0.6699356594204318  0.3840456297278578
  0.1868713746380877  0.6699622308606479  0.8840501064720243
  0.6867931472903450  0.3300342568749741  0.6159716866115446
  0.0192325275401899  0.1277724731342644  0.8401972951511993
  0.5191731069109267  0.8721036415616936  0.6597104696906442
  0.9808116641488880  0.8721132924035828  0.1597537612982052
  0.4807691907794833  0.1278005250297980  0.3402307083715499
  0.4225404958926688  0.2369366275723621  0.9215406075480246
  0.9227401109116400  0.7631448699823693  0.5785269831727291
  0.5773058967770126  0.7631282281759226  0.0785009048257166
  0.0773979763561172  0.2369184360946690  0.4215211824959653
 
  0.00000000E+00  0.00000000E+00  0.00000000E+00
  0.00000000E+00  0.00000000E+00  0.00000000E+00
  0.00000000E+00  0.00000000E+00  0.00000000E+00
  0.00000000E+00  0.00000000E+00  0.00000000E+00
  0.00000000E+00  0.00000000E+00  0.00000000E+00
  0.00000000E+00  0.00000000E+00  0.00000000E+00
  0.00000000E+00  0.00000000E+00  0.00000000E+00
  0.00000000E+00  0.00000000E+00  0.00000000E+00
  0.00000000E+00  0.00000000E+00  0.00000000E+00
  0.00000000E+00  0.00000000E+00  0.00000000E+00
  0.00000000E+00  0.00000000E+00  0.00000000E+00
  0.00000000E+00  0.00000000E+00  0.00000000E+00
  0.00000000E+00  0.00000000E+00  0.00000000E+00
  0.00000000E+00  0.00000000E+00  0.00000000E+00
  0.00000000E+00  0.00000000E+00  0.00000000E+00
  0.00000000E+00  0.00000000E+00  0.00000000E+00
  0.00000000E+00  0.00000000E+00  0.00000000E+00
  0.00000000E+00  0.00000000E+00  0.00000000E+00
  0.00000000E+00  0.00000000E+00  0.00000000E+00
  0.00000000E+00  0.00000000E+00  0.00000000E+00
  0.00000000E+00  0.00000000E+00  0.00000000E+00
  0.00000000E+00  0.00000000E+00  0.00000000E+00
  0.00000000E+00  0.00000000E+00  0.00000000E+00
  0.00000000E+00  0.00000000E+00  0.00000000E+00
  0.00000000E+00  0.00000000E+00  0.00000000E+00
  0.00000000E+00  0.00000000E+00  0.00000000E+00
  0.00000000E+00  0.00000000E+00  0.00000000E+00
  0.00000000E+00  0.00000000E+00  0.00000000E+00
  0.00000000E+00  0.00000000E+00  0.00000000E+00
  0.00000000E+00  0.00000000E+00  0.00000000E+00
  0.00000000E+00  0.00000000E+00  0.00000000E+00
  0.00000000E+00  0.00000000E+00  0.00000000E+00
