KPOINTS created by Atomic Simulation Environment
0
Gamma
4 3 2 
0 0 0
