Li  H  C  O 
 1.0000000000000000
     5.0052363800000004    0.0001581460000000    0.0000039800000000
     0.0001822460000000    6.5278851490000003   -0.6780755130000000
    -0.0000197960000000    0.0105129220000000    8.8599777119999992
   4   8   8  12
Cartesian
  4.1973200000000004  0.8524100000000000  2.2387000000000001
  1.6950499999999999  5.6811999999999996  1.5132000000000001
  0.8076100000000001  5.6863999999999999  5.9431099999999999
  3.3109000000000002  0.8575900000000000  6.6686500000000004
  3.2931900000000001  2.0041000000000002  0.1824100000000000
  0.7895700000000000  4.5293500000000000  3.5692499999999998
  1.7132499999999999  4.5347900000000001  7.9992900000000002
  4.2150499999999997  2.0094200000000000  4.6125100000000003
  0.9288700000000000  2.9628399999999999  0.8490700000000000
  3.4318399999999998  3.5704799999999999  2.9033899999999999
  4.0762700000000001  3.5756199999999998  7.3334999999999999
  1.5736399999999999  2.9679700000000002  5.2792100000000000
  0.8462900000000000  1.6029899999999999  8.0456099999999999
  3.3496400000000000  4.9405500000000000  4.5659400000000003
  4.1587800000000001  4.9353999999999996  0.1358800000000000
  1.6561600000000001  1.5976999999999999  3.6157200000000000
  0.1929700000000000  2.6481599999999998  0.0934900000000000
  2.6953100000000001  3.8851700000000000  3.6581000000000001
  4.8126899999999999  3.8906000000000001  8.0881200000000000
  2.3096999999999999  2.6536400000000002  4.5237100000000003
  4.0704300000000000  2.1556500000000001  0.8036799999999999
  1.5672800000000000  4.3773499999999999  2.9483700000000002
  0.9354400000000000  4.3827600000000002  7.3783799999999999
  3.4376099999999998  2.1610100000000001  5.2337100000000003
  0.0962700000000000  0.8429200000000000  7.3574900000000003
  2.5987300000000002  5.7000099999999998  5.2536699999999996
  4.9093499999999999  5.6948900000000000  0.8240600000000000
  2.4063800000000000  0.8379200000000000  2.9277799999999998
  2.1149399999999998  1.5564499999999999  8.0041700000000002
  4.6186600000000002  4.9879499999999997  4.6082700000000001
  2.8896899999999999  4.9825299999999997  0.1780600000000000
  0.3874300000000000  1.5510200000000001  3.5740200000000000
